p cnf 34 45
-27 -1 -19 0
-7 -32 -18 0
13 -33 17 0
20 -33 19 0
29 -26 -16 0
-24 10 -15 0
-10 23 -2 0
-32 29 1 0
33 -19 21 0
-6 22 -18 0
12 -14 -9 0
-5 -15 11 0
8 -24 2 0
27 5 -19 0
-20 10 -21 0
22 -24 -32 0
-14 8 1 0
-9 26 27 0
-5 -13 -4 0
-14 -33 -2 0
-6 -9 -4 0
6 30 29 0
27 23 -29 0
-24 15 -27 0
-24 34 19 0
-3 -9 -21 0
-3 -7 -17 0
14 11 14 0
7 16 13 0
1 2 3 4 5 6 7 8 9 10 11 12 13 14 15 16 17 18 19 20 21 22 23 24 25 26 27 28 29 30 31 32 33 34 0
2 -10 30 0
22 24 -24 0
17 -30 -15 0
17 32 -31 0
20 -11 29 0
29 -28 -1 0
31 2 3 0
6 -4 -16 0
-25 19 -8 0
-1 -2 -3 -4 -5 -6 -7 -8 -9 -10 -11 -12 -13 -14 -15 -16 -17 -18 -19 -20 -21 -22 -23 -24 -25 -26 -27 -28 -29 -30 -31 -32 -33 -34 0
-11 -16 -31 0
9 20 -26 0
-12 -11 -18 0
27 32 14 0
10 9 31 0
